541 543 544 545 546 547 103 104 105 106 117 122 121 120 118 119 123 71 70 69 68 67 66 65 72 73 74 75 76 64 62 63 61 60 59 58 57 82 81 80 79 78 77 88 89 94 97 95 96 98 554 553 552 99 100 102 101 551 550 559 558 557 556 555 45 46 91 92 93 90 87 86 85 84 83 56 55 53 54 52 51 50 49 48 47 44 43 42 39 41 40 38 37 36 35 34 33 32 30 31 29 28 27 26 25 24 21 22 23 12 13 14 15 16 11 10 9 7 8 17 18 19 20 568 569 570 571 573 572 6 5 4 3 2 1 0 460 459 458 457 456 455 454 439 440 441 450 449 448 447 446 442 443 444 445 431 433 434 435 436 438 437 432 430 429 428 427 426 420 421 422 423 424 425 382 386 387 388 389 390 391 393 392 381 380 379 378 377 376 375 374 315 314 316 313 305 306 304 303 301 302 508 507 506 509 510 511 513 512 527 528 529 490 491 492 493 524 525 526 523 522 521 520 517 514 515 516 502 503 504 505 307 308 309 310 311 312 451 501 500 499 453 452 461 462 463 464 465 466 467 468 469 470 496 497 498 519 518 494 495 471 472 473 474 567 566 565 564 563 562 561 560 549 548 478 477 479 480 476 475 482 481 483 539 538 537 536 484 485 486 487 535 534 488 533 532 489 530 531 231 230 229 228 225 226 191 192 190 189 227 186 188 187 178 177 540 176 175 174 173 108 172 170 171 169 180 181 179 182 183 185 184 197 196 195 194 193 219 218 220 221 222 224 223 232 233 234 235 236 237 240 243 242 241 300 299 298 297 319 318 317 320 321 324 328 329 366 365 368 369 370 367 327 326 325 323 322 373 372 371 396 395 394 397 398 399 364 363 361 358 359 360 401 402 403 400 404 405 406 407 408 409 385 383 384 410 418 419 417 416 415 414 413 411 412 356 357 355 354 353 352 351 350 349 348 347 362 346 345 344 343 342 341 340 330 331 332 333 339 338 337 336 335 334 283 284 285 286 287 280 281 282 279 278 277 276 288 289 290 275 274 273 292 291 293 294 295 296 270 268 269 272 271 267 266 265 264 263 262 258 259 261 260 257 256 255 253 254 252 251 250 249 248 244 239 238 245 247 246 216 217 215 214 213 212 211 210 209 208 207 206 205 198 199 200 201 202 204 203 165 164 166 167 163 168 162 161 113 131 130 129 132 133 134 135 136 158 157 159 156 155 160 154 153 147 148 152 149 150 151 146 145 144 143 142 141 140 139 137 138 124 125 126 127 128 116 115 114 112 111 110 109 107 542